sat
(model 
  (define-fun inv ((x!0 Int) (x!1 Int) (x!2 Int)) Bool
    (let ((a!1 (and (= (ite (<= 1 x!0) 1 0) 1)
                    (= (ite (<= 1 x!1) 1 0) 1)
                    (= (ite (<= 1 x!2) 1 0) 1)))
          (a!2 (and (= (ite (<= 1 x!0) 1 0) 0)
                    (= (ite (<= 1 x!1) 1 0) 1)
                    (= (ite (<= 1 x!2) 1 0) 1))))
      (or a!1 a!2)))
)
